instances/shortest_path/discrete/shortest_path_6_4.lp
\ Model nohadani_6_4
\ LP format - for model browsing. Use MPS format to capture full model detail.
\ Signature: 0x9d6f60db6d04e09d
Minimize
  46.52956049652737 y[0,1] + 27.89265136196271 y[0,2]
   + 36.89173349139343 y[0,3] + 60 y[0,4] + 36.05551275463989 y[0,5]
   + 46.52956049652737 y[1,0] + 45.22167621838005 y[1,5]
   + 27.89265136196271 y[2,0] + 13.60147050873544 y[2,3]
   + 41.97618372363071 y[2,4] + 38.28837943815329 y[2,5]
   + 36.89173349139343 y[3,0] + 13.60147050873544 y[3,2]
   + 28.44292530665578 y[3,4] + 33.12099032335839 y[3,5] + 60 y[4,0]
   + 41.97618372363071 y[4,2] + 28.44292530665578 y[4,3]
   + 36.05551275463989 y[4,5] + 36.05551275463989 y[5,0]
   + 45.22167621838005 y[5,1] + 38.28837943815329 y[5,2]
   + 33.12099032335839 y[5,3] + 36.05551275463989 y[5,4] + x[0,1] + x[0,2]
   + x[0,3] + x[0,4] + x[0,5] + x[1,0] + x[1,5] + x[2,0] + x[2,3] + x[2,4]
   + x[2,5] + x[3,0] + x[3,2] + x[3,4] + x[3,5] + x[4,0] + x[4,2] + x[4,3]
   + x[4,5] + x[5,0] + x[5,1] + x[5,2] + x[5,3] + x[5,4]
   + 4.652956049652737 r[0,1] + 2.789265136196271 r[0,2]
   + 3.689173349139343 r[0,3] + 6 r[0,4] + 3.60555127546399 r[0,5]
   + 4.652956049652737 r[1,0] + 4.522167621838006 r[1,5]
   + 2.789265136196271 r[2,0] + 1.360147050873544 r[2,3]
   + 4.197618372363071 r[2,4] + 3.828837943815329 r[2,5]
   + 3.689173349139343 r[3,0] + 1.360147050873544 r[3,2]
   + 2.844292530665578 r[3,4] + 3.312099032335839 r[3,5] + 6 r[4,0]
   + 4.197618372363071 r[4,2] + 2.844292530665578 r[4,3]
   + 3.60555127546399 r[4,5] + 3.60555127546399 r[5,0]
   + 4.522167621838006 r[5,1] + 3.828837943815329 r[5,2]
   + 3.312099032335839 r[5,3] + 3.60555127546399 r[5,4]
Subject To
 flow_cons_inner_nodes[0]: - y[0,1] - y[0,2] - y[0,3] - y[0,4] - y[0,5]
   + y[1,0] + y[2,0] + y[3,0] + y[4,0] + y[5,0] = 0
 flow_cons_inner_nodes[2]: y[0,2] - y[2,0] - y[2,3] - y[2,4] - y[2,5]
   + y[3,2] + y[4,2] + y[5,2] = 0
 flow_cons_inner_nodes[3]: y[0,3] + y[2,3] - y[3,0] - y[3,2] - y[3,4]
   - y[3,5] + y[4,3] + y[5,3] = 0
 flow_cons_inner_nodes[5]: y[0,5] + y[1,5] + y[2,5] + y[3,5] + y[4,5]
   - y[5,0] - y[5,1] - y[5,2] - y[5,3] - y[5,4] = 0
 flow_cons_source: - y[0,1] + y[1,0] + y[1,5] - y[5,1] = 1
 flow_cons_target: y[0,4] + y[2,4] + y[3,4] - y[4,0] - y[4,2] - y[4,3]
   - y[4,5] + y[5,4] = 1
 primal_lower: 0.9373991500224519 x[0,1] + 2.351087029094011 x[0,2]
   + 1.891566234173612 x[0,3] + 3.064048009940814 x[0,4]
   + 2.240889005840543 x[0,5] + 2.41251603816752 x[1,0]
   + 0.5531320330418177 x[1,5] + 3.855987884231559 x[2,0]
   + 0.7004518399056114 x[2,3] + 3.771527731654656 x[2,4]
   + 3.631854643348663 x[2,5] + 1.738236855257683 x[3,0]
   + 3.976783305213726 x[3,2] + 1.915451881059052 x[3,4]
   + 3.895046165145973 x[3,5] + 3.215096108304415 x[4,0]
   + 1.729653087156114 x[4,2] + 3.893661710556981 x[4,3]
   + 2.480192746117354 x[4,5] + 0.8894422955397983 x[5,0]
   + 1.804346205567001 x[5,1] + 2.642029901351207 x[5,2]
   + 0.6112757894186341 x[5,3] + 3.308250565547204 x[5,4] + 66 u[0,1]
   + 3 u[0,2] + u[0,3] + 74 u[0,4] + 3 u[0,5] + 96 u[1,0] + 80 u[1,5]
   + 6 u[2,0] + 76 u[2,3] + 65 u[2,4] + 30 u[2,5] + 38 u[3,0] + 15 u[3,2]
   + 31 u[3,4] + 99 u[3,5] + 43 u[4,0] + 76 u[4,2] + 39 u[4,3] + 64 u[4,5]
   + 13 u[5,0] + 4 u[5,1] + 38 u[5,2] + 47 u[5,3] + 57 u[5,4] <= 99
 mccormick1[0,1]: - u[0,1] + r[0,1] <= 0
 mccormick1[0,2]: - u[0,2] + r[0,2] <= 0
 mccormick1[0,3]: - u[0,3] + r[0,3] <= 0
 mccormick1[0,4]: - u[0,4] + r[0,4] <= 0
 mccormick1[0,5]: - u[0,5] + r[0,5] <= 0
 mccormick1[1,0]: - u[1,0] + r[1,0] <= 0
 mccormick1[1,5]: - u[1,5] + r[1,5] <= 0
 mccormick1[2,0]: - u[2,0] + r[2,0] <= 0
 mccormick1[2,3]: - u[2,3] + r[2,3] <= 0
 mccormick1[2,4]: - u[2,4] + r[2,4] <= 0
 mccormick1[2,5]: - u[2,5] + r[2,5] <= 0
 mccormick1[3,0]: - u[3,0] + r[3,0] <= 0
 mccormick1[3,2]: - u[3,2] + r[3,2] <= 0
 mccormick1[3,4]: - u[3,4] + r[3,4] <= 0
 mccormick1[3,5]: - u[3,5] + r[3,5] <= 0
 mccormick1[4,0]: - u[4,0] + r[4,0] <= 0
 mccormick1[4,2]: - u[4,2] + r[4,2] <= 0
 mccormick1[4,3]: - u[4,3] + r[4,3] <= 0
 mccormick1[4,5]: - u[4,5] + r[4,5] <= 0
 mccormick1[5,0]: - u[5,0] + r[5,0] <= 0
 mccormick1[5,1]: - u[5,1] + r[5,1] <= 0
 mccormick1[5,2]: - u[5,2] + r[5,2] <= 0
 mccormick1[5,3]: - u[5,3] + r[5,3] <= 0
 mccormick1[5,4]: - u[5,4] + r[5,4] <= 0
 mccormick2[0,1]: - y[0,1] + r[0,1] <= 0
 mccormick2[0,2]: - y[0,2] + r[0,2] <= 0
 mccormick2[0,3]: - y[0,3] + r[0,3] <= 0
 mccormick2[0,4]: - y[0,4] + r[0,4] <= 0
 mccormick2[0,5]: - y[0,5] + r[0,5] <= 0
 mccormick2[1,0]: - y[1,0] + r[1,0] <= 0
 mccormick2[1,5]: - y[1,5] + r[1,5] <= 0
 mccormick2[2,0]: - y[2,0] + r[2,0] <= 0
 mccormick2[2,3]: - y[2,3] + r[2,3] <= 0
 mccormick2[2,4]: - y[2,4] + r[2,4] <= 0
 mccormick2[2,5]: - y[2,5] + r[2,5] <= 0
 mccormick2[3,0]: - y[3,0] + r[3,0] <= 0
 mccormick2[3,2]: - y[3,2] + r[3,2] <= 0
 mccormick2[3,4]: - y[3,4] + r[3,4] <= 0
 mccormick2[3,5]: - y[3,5] + r[3,5] <= 0
 mccormick2[4,0]: - y[4,0] + r[4,0] <= 0
 mccormick2[4,2]: - y[4,2] + r[4,2] <= 0
 mccormick2[4,3]: - y[4,3] + r[4,3] <= 0
 mccormick2[4,5]: - y[4,5] + r[4,5] <= 0
 mccormick2[5,0]: - y[5,0] + r[5,0] <= 0
 mccormick2[5,1]: - y[5,1] + r[5,1] <= 0
 mccormick2[5,2]: - y[5,2] + r[5,2] <= 0
 mccormick2[5,3]: - y[5,3] + r[5,3] <= 0
 mccormick2[5,4]: - y[5,4] + r[5,4] <= 0
 mccormick3[0,1]: - y[0,1] - u[0,1] + r[0,1] >= -1
 mccormick3[0,2]: - y[0,2] - u[0,2] + r[0,2] >= -1
 mccormick3[0,3]: - y[0,3] - u[0,3] + r[0,3] >= -1
 mccormick3[0,4]: - y[0,4] - u[0,4] + r[0,4] >= -1
 mccormick3[0,5]: - y[0,5] - u[0,5] + r[0,5] >= -1
 mccormick3[1,0]: - y[1,0] - u[1,0] + r[1,0] >= -1
 mccormick3[1,5]: - y[1,5] - u[1,5] + r[1,5] >= -1
 mccormick3[2,0]: - y[2,0] - u[2,0] + r[2,0] >= -1
 mccormick3[2,3]: - y[2,3] - u[2,3] + r[2,3] >= -1
 mccormick3[2,4]: - y[2,4] - u[2,4] + r[2,4] >= -1
 mccormick3[2,5]: - y[2,5] - u[2,5] + r[2,5] >= -1
 mccormick3[3,0]: - y[3,0] - u[3,0] + r[3,0] >= -1
 mccormick3[3,2]: - y[3,2] - u[3,2] + r[3,2] >= -1
 mccormick3[3,4]: - y[3,4] - u[3,4] + r[3,4] >= -1
 mccormick3[3,5]: - y[3,5] - u[3,5] + r[3,5] >= -1
 mccormick3[4,0]: - y[4,0] - u[4,0] + r[4,0] >= -1
 mccormick3[4,2]: - y[4,2] - u[4,2] + r[4,2] >= -1
 mccormick3[4,3]: - y[4,3] - u[4,3] + r[4,3] >= -1
 mccormick3[4,5]: - y[4,5] - u[4,5] + r[4,5] >= -1
 mccormick3[5,0]: - y[5,0] - u[5,0] + r[5,0] >= -1
 mccormick3[5,1]: - y[5,1] - u[5,1] + r[5,1] >= -1
 mccormick3[5,2]: - y[5,2] - u[5,2] + r[5,2] >= -1
 mccormick3[5,3]: - y[5,3] - u[5,3] + r[5,3] >= -1
 mccormick3[5,4]: - y[5,4] - u[5,4] + r[5,4] >= -1
Bounds
Binaries
 y[0,1] y[0,2] y[0,3] y[0,4] y[0,5] y[1,0] y[1,5] y[2,0] y[2,3] y[2,4]
 y[2,5] y[3,0] y[3,2] y[3,4] y[3,5] y[4,0] y[4,2] y[4,3] y[4,5] y[5,0]
 y[5,1] y[5,2] y[5,3] y[5,4] x[0,1] x[0,2] x[0,3] x[0,4] x[0,5] x[1,0]
 x[1,5] x[2,0] x[2,3] x[2,4] x[2,5] x[3,0] x[3,2] x[3,4] x[3,5] x[4,0]
 x[4,2] x[4,3] x[4,5] x[5,0] x[5,1] x[5,2] x[5,3] x[5,4] u[0,1] u[0,2]
 u[0,3] u[0,4] u[0,5] u[1,0] u[1,5] u[2,0] u[2,3] u[2,4] u[2,5] u[3,0]
 u[3,2] u[3,4] u[3,5] u[4,0] u[4,2] u[4,3] u[4,5] u[5,0] u[5,1] u[5,2]
 u[5,3] u[5,4] r[0,1] r[0,2] r[0,3] r[0,4] r[0,5] r[1,0] r[1,5] r[2,0]
 r[2,3] r[2,4] r[2,5] r[3,0] r[3,2] r[3,4] r[3,5] r[4,0] r[4,2] r[4,3]
 r[4,5] r[5,0] r[5,1] r[5,2] r[5,3] r[5,4]
End
