instances/shortest_path/discrete/shortest_path_6_4.mps
* Signature: 0x9d6f60db6d04e09d
NAME nohadani_6_4
ROWS
 N  OBJ
 E  flow_cons_inner_nodes[0]
 E  flow_cons_inner_nodes[2]
 E  flow_cons_inner_nodes[3]
 E  flow_cons_inner_nodes[5]
 E  flow_cons_source
 E  flow_cons_target
 L  primal_lower
 L  mccormick1[0,1]
 L  mccormick1[0,2]
 L  mccormick1[0,3]
 L  mccormick1[0,4]
 L  mccormick1[0,5]
 L  mccormick1[1,0]
 L  mccormick1[1,5]
 L  mccormick1[2,0]
 L  mccormick1[2,3]
 L  mccormick1[2,4]
 L  mccormick1[2,5]
 L  mccormick1[3,0]
 L  mccormick1[3,2]
 L  mccormick1[3,4]
 L  mccormick1[3,5]
 L  mccormick1[4,0]
 L  mccormick1[4,2]
 L  mccormick1[4,3]
 L  mccormick1[4,5]
 L  mccormick1[5,0]
 L  mccormick1[5,1]
 L  mccormick1[5,2]
 L  mccormick1[5,3]
 L  mccormick1[5,4]
 L  mccormick2[0,1]
 L  mccormick2[0,2]
 L  mccormick2[0,3]
 L  mccormick2[0,4]
 L  mccormick2[0,5]
 L  mccormick2[1,0]
 L  mccormick2[1,5]
 L  mccormick2[2,0]
 L  mccormick2[2,3]
 L  mccormick2[2,4]
 L  mccormick2[2,5]
 L  mccormick2[3,0]
 L  mccormick2[3,2]
 L  mccormick2[3,4]
 L  mccormick2[3,5]
 L  mccormick2[4,0]
 L  mccormick2[4,2]
 L  mccormick2[4,3]
 L  mccormick2[4,5]
 L  mccormick2[5,0]
 L  mccormick2[5,1]
 L  mccormick2[5,2]
 L  mccormick2[5,3]
 L  mccormick2[5,4]
 G  mccormick3[0,1]
 G  mccormick3[0,2]
 G  mccormick3[0,3]
 G  mccormick3[0,4]
 G  mccormick3[0,5]
 G  mccormick3[1,0]
 G  mccormick3[1,5]
 G  mccormick3[2,0]
 G  mccormick3[2,3]
 G  mccormick3[2,4]
 G  mccormick3[2,5]
 G  mccormick3[3,0]
 G  mccormick3[3,2]
 G  mccormick3[3,4]
 G  mccormick3[3,5]
 G  mccormick3[4,0]
 G  mccormick3[4,2]
 G  mccormick3[4,3]
 G  mccormick3[4,5]
 G  mccormick3[5,0]
 G  mccormick3[5,1]
 G  mccormick3[5,2]
 G  mccormick3[5,3]
 G  mccormick3[5,4]
COLUMNS
    MARKER    'MARKER'                 'INTORG'
    y[0,1]    OBJ       4.6529560496527367e+01
    y[0,1]    flow_cons_inner_nodes[0]  -1
    y[0,1]    flow_cons_source  -1
    y[0,1]    mccormick2[0,1]  -1
    y[0,1]    mccormick3[0,1]  -1
    y[0,2]    OBJ       2.7892651361962706e+01
    y[0,2]    flow_cons_inner_nodes[0]  -1
    y[0,2]    flow_cons_inner_nodes[2]  1
    y[0,2]    mccormick2[0,2]  -1
    y[0,2]    mccormick3[0,2]  -1
    y[0,3]    OBJ       3.6891733491393431e+01
    y[0,3]    flow_cons_inner_nodes[0]  -1
    y[0,3]    flow_cons_inner_nodes[3]  1
    y[0,3]    mccormick2[0,3]  -1
    y[0,3]    mccormick3[0,3]  -1
    y[0,4]    OBJ       60
    y[0,4]    flow_cons_inner_nodes[0]  -1
    y[0,4]    flow_cons_target  1
    y[0,4]    mccormick2[0,4]  -1
    y[0,4]    mccormick3[0,4]  -1
    y[0,5]    OBJ       3.6055512754639892e+01
    y[0,5]    flow_cons_inner_nodes[0]  -1
    y[0,5]    flow_cons_inner_nodes[5]  1
    y[0,5]    mccormick2[0,5]  -1
    y[0,5]    mccormick3[0,5]  -1
    y[1,0]    OBJ       4.6529560496527367e+01
    y[1,0]    flow_cons_inner_nodes[0]  1
    y[1,0]    flow_cons_source  1
    y[1,0]    mccormick2[1,0]  -1
    y[1,0]    mccormick3[1,0]  -1
    y[1,5]    OBJ       4.5221676218380054e+01
    y[1,5]    flow_cons_inner_nodes[5]  1
    y[1,5]    flow_cons_source  1
    y[1,5]    mccormick2[1,5]  -1
    y[1,5]    mccormick3[1,5]  -1
    y[2,0]    OBJ       2.7892651361962706e+01
    y[2,0]    flow_cons_inner_nodes[0]  1
    y[2,0]    flow_cons_inner_nodes[2]  -1
    y[2,0]    mccormick2[2,0]  -1
    y[2,0]    mccormick3[2,0]  -1
    y[2,3]    OBJ       1.3601470508735444e+01
    y[2,3]    flow_cons_inner_nodes[2]  -1
    y[2,3]    flow_cons_inner_nodes[3]  1
    y[2,3]    mccormick2[2,3]  -1
    y[2,3]    mccormick3[2,3]  -1
    y[2,4]    OBJ       4.1976183723630712e+01
    y[2,4]    flow_cons_inner_nodes[2]  -1
    y[2,4]    flow_cons_target  1
    y[2,4]    mccormick2[2,4]  -1
    y[2,4]    mccormick3[2,4]  -1
    y[2,5]    OBJ       3.8288379438153292e+01
    y[2,5]    flow_cons_inner_nodes[2]  -1
    y[2,5]    flow_cons_inner_nodes[5]  1
    y[2,5]    mccormick2[2,5]  -1
    y[2,5]    mccormick3[2,5]  -1
    y[3,0]    OBJ       3.6891733491393431e+01
    y[3,0]    flow_cons_inner_nodes[0]  1
    y[3,0]    flow_cons_inner_nodes[3]  -1
    y[3,0]    mccormick2[3,0]  -1
    y[3,0]    mccormick3[3,0]  -1
    y[3,2]    OBJ       1.3601470508735444e+01
    y[3,2]    flow_cons_inner_nodes[2]  1
    y[3,2]    flow_cons_inner_nodes[3]  -1
    y[3,2]    mccormick2[3,2]  -1
    y[3,2]    mccormick3[3,2]  -1
    y[3,4]    OBJ       2.8442925306655784e+01
    y[3,4]    flow_cons_inner_nodes[3]  -1
    y[3,4]    flow_cons_target  1
    y[3,4]    mccormick2[3,4]  -1
    y[3,4]    mccormick3[3,4]  -1
    y[3,5]    OBJ       3.3120990323358392e+01
    y[3,5]    flow_cons_inner_nodes[3]  -1
    y[3,5]    flow_cons_inner_nodes[5]  1
    y[3,5]    mccormick2[3,5]  -1
    y[3,5]    mccormick3[3,5]  -1
    y[4,0]    OBJ       60
    y[4,0]    flow_cons_inner_nodes[0]  1
    y[4,0]    flow_cons_target  -1
    y[4,0]    mccormick2[4,0]  -1
    y[4,0]    mccormick3[4,0]  -1
    y[4,2]    OBJ       4.1976183723630712e+01
    y[4,2]    flow_cons_inner_nodes[2]  1
    y[4,2]    flow_cons_target  -1
    y[4,2]    mccormick2[4,2]  -1
    y[4,2]    mccormick3[4,2]  -1
    y[4,3]    OBJ       2.8442925306655784e+01
    y[4,3]    flow_cons_inner_nodes[3]  1
    y[4,3]    flow_cons_target  -1
    y[4,3]    mccormick2[4,3]  -1
    y[4,3]    mccormick3[4,3]  -1
    y[4,5]    OBJ       3.6055512754639892e+01
    y[4,5]    flow_cons_inner_nodes[5]  1
    y[4,5]    flow_cons_target  -1
    y[4,5]    mccormick2[4,5]  -1
    y[4,5]    mccormick3[4,5]  -1
    y[5,0]    OBJ       3.6055512754639892e+01
    y[5,0]    flow_cons_inner_nodes[0]  1
    y[5,0]    flow_cons_inner_nodes[5]  -1
    y[5,0]    mccormick2[5,0]  -1
    y[5,0]    mccormick3[5,0]  -1
    y[5,1]    OBJ       4.5221676218380054e+01
    y[5,1]    flow_cons_inner_nodes[5]  -1
    y[5,1]    flow_cons_source  -1
    y[5,1]    mccormick2[5,1]  -1
    y[5,1]    mccormick3[5,1]  -1
    y[5,2]    OBJ       3.8288379438153292e+01
    y[5,2]    flow_cons_inner_nodes[2]  1
    y[5,2]    flow_cons_inner_nodes[5]  -1
    y[5,2]    mccormick2[5,2]  -1
    y[5,2]    mccormick3[5,2]  -1
    y[5,3]    OBJ       3.3120990323358392e+01
    y[5,3]    flow_cons_inner_nodes[3]  1
    y[5,3]    flow_cons_inner_nodes[5]  -1
    y[5,3]    mccormick2[5,3]  -1
    y[5,3]    mccormick3[5,3]  -1
    y[5,4]    OBJ       3.6055512754639892e+01
    y[5,4]    flow_cons_inner_nodes[5]  -1
    y[5,4]    flow_cons_target  1
    y[5,4]    mccormick2[5,4]  -1
    y[5,4]    mccormick3[5,4]  -1
    x[0,1]    OBJ       1
    x[0,1]    primal_lower  9.3739915002245189e-01
    x[0,2]    OBJ       1
    x[0,2]    primal_lower  2.3510870290940113e+00
    x[0,3]    OBJ       1
    x[0,3]    primal_lower  1.8915662341736121e+00
    x[0,4]    OBJ       1
    x[0,4]    primal_lower  3.0640480099408145e+00
    x[0,5]    OBJ       1
    x[0,5]    primal_lower  2.2408890058405428e+00
    x[1,0]    OBJ       1
    x[1,0]    primal_lower  2.4125160381675204e+00
    x[1,5]    OBJ       1
    x[1,5]    primal_lower  5.5313203304181768e-01
    x[2,0]    OBJ       1
    x[2,0]    primal_lower  3.8559878842315589e+00
    x[2,3]    OBJ       1
    x[2,3]    primal_lower  7.0045183990561144e-01
    x[2,4]    OBJ       1
    x[2,4]    primal_lower  3.7715277316546563e+00
    x[2,5]    OBJ       1
    x[2,5]    primal_lower  3.6318546433486634e+00
    x[3,0]    OBJ       1
    x[3,0]    primal_lower  1.7382368552576826e+00
    x[3,2]    OBJ       1
    x[3,2]    primal_lower  3.9767833052137256e+00
    x[3,4]    OBJ       1
    x[3,4]    primal_lower  1.9154518810590522e+00
    x[3,5]    OBJ       1
    x[3,5]    primal_lower  3.8950461651459727e+00
    x[4,0]    OBJ       1
    x[4,0]    primal_lower  3.2150961083044152e+00
    x[4,2]    OBJ       1
    x[4,2]    primal_lower  1.7296530871561144e+00
    x[4,3]    OBJ       1
    x[4,3]    primal_lower  3.8936617105569806e+00
    x[4,5]    OBJ       1
    x[4,5]    primal_lower  2.4801927461173539e+00
    x[5,0]    OBJ       1
    x[5,0]    primal_lower  8.8944229553979826e-01
    x[5,1]    OBJ       1
    x[5,1]    primal_lower  1.8043462055670008e+00
    x[5,2]    OBJ       1
    x[5,2]    primal_lower  2.6420299013512074e+00
    x[5,3]    OBJ       1
    x[5,3]    primal_lower  6.1127578941863414e-01
    x[5,4]    OBJ       1
    x[5,4]    primal_lower  3.3082505655472043e+00
    u[0,1]    primal_lower  66
    u[0,1]    mccormick1[0,1]  -1
    u[0,1]    mccormick3[0,1]  -1
    u[0,2]    primal_lower  3
    u[0,2]    mccormick1[0,2]  -1
    u[0,2]    mccormick3[0,2]  -1
    u[0,3]    primal_lower  1
    u[0,3]    mccormick1[0,3]  -1
    u[0,3]    mccormick3[0,3]  -1
    u[0,4]    primal_lower  74
    u[0,4]    mccormick1[0,4]  -1
    u[0,4]    mccormick3[0,4]  -1
    u[0,5]    primal_lower  3
    u[0,5]    mccormick1[0,5]  -1
    u[0,5]    mccormick3[0,5]  -1
    u[1,0]    primal_lower  96
    u[1,0]    mccormick1[1,0]  -1
    u[1,0]    mccormick3[1,0]  -1
    u[1,5]    primal_lower  80
    u[1,5]    mccormick1[1,5]  -1
    u[1,5]    mccormick3[1,5]  -1
    u[2,0]    primal_lower  6
    u[2,0]    mccormick1[2,0]  -1
    u[2,0]    mccormick3[2,0]  -1
    u[2,3]    primal_lower  76
    u[2,3]    mccormick1[2,3]  -1
    u[2,3]    mccormick3[2,3]  -1
    u[2,4]    primal_lower  65
    u[2,4]    mccormick1[2,4]  -1
    u[2,4]    mccormick3[2,4]  -1
    u[2,5]    primal_lower  30
    u[2,5]    mccormick1[2,5]  -1
    u[2,5]    mccormick3[2,5]  -1
    u[3,0]    primal_lower  38
    u[3,0]    mccormick1[3,0]  -1
    u[3,0]    mccormick3[3,0]  -1
    u[3,2]    primal_lower  15
    u[3,2]    mccormick1[3,2]  -1
    u[3,2]    mccormick3[3,2]  -1
    u[3,4]    primal_lower  31
    u[3,4]    mccormick1[3,4]  -1
    u[3,4]    mccormick3[3,4]  -1
    u[3,5]    primal_lower  99
    u[3,5]    mccormick1[3,5]  -1
    u[3,5]    mccormick3[3,5]  -1
    u[4,0]    primal_lower  43
    u[4,0]    mccormick1[4,0]  -1
    u[4,0]    mccormick3[4,0]  -1
    u[4,2]    primal_lower  76
    u[4,2]    mccormick1[4,2]  -1
    u[4,2]    mccormick3[4,2]  -1
    u[4,3]    primal_lower  39
    u[4,3]    mccormick1[4,3]  -1
    u[4,3]    mccormick3[4,3]  -1
    u[4,5]    primal_lower  64
    u[4,5]    mccormick1[4,5]  -1
    u[4,5]    mccormick3[4,5]  -1
    u[5,0]    primal_lower  13
    u[5,0]    mccormick1[5,0]  -1
    u[5,0]    mccormick3[5,0]  -1
    u[5,1]    primal_lower  4
    u[5,1]    mccormick1[5,1]  -1
    u[5,1]    mccormick3[5,1]  -1
    u[5,2]    primal_lower  38
    u[5,2]    mccormick1[5,2]  -1
    u[5,2]    mccormick3[5,2]  -1
    u[5,3]    primal_lower  47
    u[5,3]    mccormick1[5,3]  -1
    u[5,3]    mccormick3[5,3]  -1
    u[5,4]    primal_lower  57
    u[5,4]    mccormick1[5,4]  -1
    u[5,4]    mccormick3[5,4]  -1
    r[0,1]    OBJ       4.6529560496527367e+00
    r[0,1]    mccormick1[0,1]  1
    r[0,1]    mccormick2[0,1]  1
    r[0,1]    mccormick3[0,1]  1
    r[0,2]    OBJ       2.7892651361962706e+00
    r[0,2]    mccormick1[0,2]  1
    r[0,2]    mccormick2[0,2]  1
    r[0,2]    mccormick3[0,2]  1
    r[0,3]    OBJ       3.6891733491393435e+00
    r[0,3]    mccormick1[0,3]  1
    r[0,3]    mccormick2[0,3]  1
    r[0,3]    mccormick3[0,3]  1
    r[0,4]    OBJ       6
    r[0,4]    mccormick1[0,4]  1
    r[0,4]    mccormick2[0,4]  1
    r[0,4]    mccormick3[0,4]  1
    r[0,5]    OBJ       3.6055512754639896e+00
    r[0,5]    mccormick1[0,5]  1
    r[0,5]    mccormick2[0,5]  1
    r[0,5]    mccormick3[0,5]  1
    r[1,0]    OBJ       4.6529560496527367e+00
    r[1,0]    mccormick1[1,0]  1
    r[1,0]    mccormick2[1,0]  1
    r[1,0]    mccormick3[1,0]  1
    r[1,5]    OBJ       4.5221676218380056e+00
    r[1,5]    mccormick1[1,5]  1
    r[1,5]    mccormick2[1,5]  1
    r[1,5]    mccormick3[1,5]  1
    r[2,0]    OBJ       2.7892651361962706e+00
    r[2,0]    mccormick1[2,0]  1
    r[2,0]    mccormick2[2,0]  1
    r[2,0]    mccormick3[2,0]  1
    r[2,3]    OBJ       1.3601470508735445e+00
    r[2,3]    mccormick1[2,3]  1
    r[2,3]    mccormick2[2,3]  1
    r[2,3]    mccormick3[2,3]  1
    r[2,4]    OBJ       4.1976183723630713e+00
    r[2,4]    mccormick1[2,4]  1
    r[2,4]    mccormick2[2,4]  1
    r[2,4]    mccormick3[2,4]  1
    r[2,5]    OBJ       3.8288379438153295e+00
    r[2,5]    mccormick1[2,5]  1
    r[2,5]    mccormick2[2,5]  1
    r[2,5]    mccormick3[2,5]  1
    r[3,0]    OBJ       3.6891733491393435e+00
    r[3,0]    mccormick1[3,0]  1
    r[3,0]    mccormick2[3,0]  1
    r[3,0]    mccormick3[3,0]  1
    r[3,2]    OBJ       1.3601470508735445e+00
    r[3,2]    mccormick1[3,2]  1
    r[3,2]    mccormick2[3,2]  1
    r[3,2]    mccormick3[3,2]  1
    r[3,4]    OBJ       2.8442925306655784e+00
    r[3,4]    mccormick1[3,4]  1
    r[3,4]    mccormick2[3,4]  1
    r[3,4]    mccormick3[3,4]  1
    r[3,5]    OBJ       3.3120990323358392e+00
    r[3,5]    mccormick1[3,5]  1
    r[3,5]    mccormick2[3,5]  1
    r[3,5]    mccormick3[3,5]  1
    r[4,0]    OBJ       6
    r[4,0]    mccormick1[4,0]  1
    r[4,0]    mccormick2[4,0]  1
    r[4,0]    mccormick3[4,0]  1
    r[4,2]    OBJ       4.1976183723630713e+00
    r[4,2]    mccormick1[4,2]  1
    r[4,2]    mccormick2[4,2]  1
    r[4,2]    mccormick3[4,2]  1
    r[4,3]    OBJ       2.8442925306655784e+00
    r[4,3]    mccormick1[4,3]  1
    r[4,3]    mccormick2[4,3]  1
    r[4,3]    mccormick3[4,3]  1
    r[4,5]    OBJ       3.6055512754639896e+00
    r[4,5]    mccormick1[4,5]  1
    r[4,5]    mccormick2[4,5]  1
    r[4,5]    mccormick3[4,5]  1
    r[5,0]    OBJ       3.6055512754639896e+00
    r[5,0]    mccormick1[5,0]  1
    r[5,0]    mccormick2[5,0]  1
    r[5,0]    mccormick3[5,0]  1
    r[5,1]    OBJ       4.5221676218380056e+00
    r[5,1]    mccormick1[5,1]  1
    r[5,1]    mccormick2[5,1]  1
    r[5,1]    mccormick3[5,1]  1
    r[5,2]    OBJ       3.8288379438153295e+00
    r[5,2]    mccormick1[5,2]  1
    r[5,2]    mccormick2[5,2]  1
    r[5,2]    mccormick3[5,2]  1
    r[5,3]    OBJ       3.3120990323358392e+00
    r[5,3]    mccormick1[5,3]  1
    r[5,3]    mccormick2[5,3]  1
    r[5,3]    mccormick3[5,3]  1
    r[5,4]    OBJ       3.6055512754639896e+00
    r[5,4]    mccormick1[5,4]  1
    r[5,4]    mccormick2[5,4]  1
    r[5,4]    mccormick3[5,4]  1
    MARKER    'MARKER'                 'INTEND'
RHS
    RHS1      flow_cons_source  1
    RHS1      flow_cons_target  1
    RHS1      primal_lower  99
    RHS1      mccormick3[0,1]  -1
    RHS1      mccormick3[0,2]  -1
    RHS1      mccormick3[0,3]  -1
    RHS1      mccormick3[0,4]  -1
    RHS1      mccormick3[0,5]  -1
    RHS1      mccormick3[1,0]  -1
    RHS1      mccormick3[1,5]  -1
    RHS1      mccormick3[2,0]  -1
    RHS1      mccormick3[2,3]  -1
    RHS1      mccormick3[2,4]  -1
    RHS1      mccormick3[2,5]  -1
    RHS1      mccormick3[3,0]  -1
    RHS1      mccormick3[3,2]  -1
    RHS1      mccormick3[3,4]  -1
    RHS1      mccormick3[3,5]  -1
    RHS1      mccormick3[4,0]  -1
    RHS1      mccormick3[4,2]  -1
    RHS1      mccormick3[4,3]  -1
    RHS1      mccormick3[4,5]  -1
    RHS1      mccormick3[5,0]  -1
    RHS1      mccormick3[5,1]  -1
    RHS1      mccormick3[5,2]  -1
    RHS1      mccormick3[5,3]  -1
    RHS1      mccormick3[5,4]  -1
BOUNDS
 BV BND1      y[0,1]  
 BV BND1      y[0,2]  
 BV BND1      y[0,3]  
 BV BND1      y[0,4]  
 BV BND1      y[0,5]  
 BV BND1      y[1,0]  
 BV BND1      y[1,5]  
 BV BND1      y[2,0]  
 BV BND1      y[2,3]  
 BV BND1      y[2,4]  
 BV BND1      y[2,5]  
 BV BND1      y[3,0]  
 BV BND1      y[3,2]  
 BV BND1      y[3,4]  
 BV BND1      y[3,5]  
 BV BND1      y[4,0]  
 BV BND1      y[4,2]  
 BV BND1      y[4,3]  
 BV BND1      y[4,5]  
 BV BND1      y[5,0]  
 BV BND1      y[5,1]  
 BV BND1      y[5,2]  
 BV BND1      y[5,3]  
 BV BND1      y[5,4]  
 BV BND1      x[0,1]  
 BV BND1      x[0,2]  
 BV BND1      x[0,3]  
 BV BND1      x[0,4]  
 BV BND1      x[0,5]  
 BV BND1      x[1,0]  
 BV BND1      x[1,5]  
 BV BND1      x[2,0]  
 BV BND1      x[2,3]  
 BV BND1      x[2,4]  
 BV BND1      x[2,5]  
 BV BND1      x[3,0]  
 BV BND1      x[3,2]  
 BV BND1      x[3,4]  
 BV BND1      x[3,5]  
 BV BND1      x[4,0]  
 BV BND1      x[4,2]  
 BV BND1      x[4,3]  
 BV BND1      x[4,5]  
 BV BND1      x[5,0]  
 BV BND1      x[5,1]  
 BV BND1      x[5,2]  
 BV BND1      x[5,3]  
 BV BND1      x[5,4]  
 BV BND1      u[0,1]  
 BV BND1      u[0,2]  
 BV BND1      u[0,3]  
 BV BND1      u[0,4]  
 BV BND1      u[0,5]  
 BV BND1      u[1,0]  
 BV BND1      u[1,5]  
 BV BND1      u[2,0]  
 BV BND1      u[2,3]  
 BV BND1      u[2,4]  
 BV BND1      u[2,5]  
 BV BND1      u[3,0]  
 BV BND1      u[3,2]  
 BV BND1      u[3,4]  
 BV BND1      u[3,5]  
 BV BND1      u[4,0]  
 BV BND1      u[4,2]  
 BV BND1      u[4,3]  
 BV BND1      u[4,5]  
 BV BND1      u[5,0]  
 BV BND1      u[5,1]  
 BV BND1      u[5,2]  
 BV BND1      u[5,3]  
 BV BND1      u[5,4]  
 BV BND1      r[0,1]  
 BV BND1      r[0,2]  
 BV BND1      r[0,3]  
 BV BND1      r[0,4]  
 BV BND1      r[0,5]  
 BV BND1      r[1,0]  
 BV BND1      r[1,5]  
 BV BND1      r[2,0]  
 BV BND1      r[2,3]  
 BV BND1      r[2,4]  
 BV BND1      r[2,5]  
 BV BND1      r[3,0]  
 BV BND1      r[3,2]  
 BV BND1      r[3,4]  
 BV BND1      r[3,5]  
 BV BND1      r[4,0]  
 BV BND1      r[4,2]  
 BV BND1      r[4,3]  
 BV BND1      r[4,5]  
 BV BND1      r[5,0]  
 BV BND1      r[5,1]  
 BV BND1      r[5,2]  
 BV BND1      r[5,3]  
 BV BND1      r[5,4]  
ENDATA
