instances/shortest_path/discrete/shortest_path_6_4.kp
14011
99

[0.9373991500224519 2.3510870290940113 1.8915662341736121 3.0640480099408145 2.240889005840543 2.4125160381675204 0.5531320330418177 3.855987884231559 0.7004518399056114 3.7715277316546563 3.6318546433486634 1.7382368552576826 3.9767833052137256 1.9154518810590522 3.8950461651459727 3.215096108304415 1.7296530871561144 3.8936617105569806 2.480192746117354 0.8894422955397983 1.8043462055670008 2.6420299013512074 0.6112757894186341 3.3082505655472043]

[66 3 1 74 3 96 80 6 76 65 30 38 15 31 99 43 76 39 64 13 4 38 47 57]
